(set-option :print-success false)
(set-logic QF_UF)
(declare-sort x148 0)
(declare-sort x100 0)
(declare-fun x116 () x100)
(declare-fun x3 () x100)
(declare-fun x128 () x100)
(declare-fun x159 () x100)
(declare-fun x74 () x100)
(declare-fun x94 (x100 x100) x100)
(declare-fun x5 (x100 x100) x100)
(assert (let ((x4 (x5 x3 x3)) (x26 (x5 x159 x159)) (x106 (x5 x74 x74)) (x142 (x5 x128 x128)) (x157 (x5 x116 x116))) (or (and (not (= x159 x26)) (and (not (= x4 x159)) (and (and (not (= x157 x159)) (not (= x159 x142))) (not (= x159 x106))))) (or (or (and (not (= x74 x26)) (and (and (and (not (= x74 x157)) (not (= x142 x74))) (not (= x74 x106))) (not (= x74 x4)))) (or (and (not (= x26 x128)) (and (and (not (= x106 x128)) (and (not (= x142 x128)) (not (= x128 x157)))) (not (= x4 x128)))) (and (and (and (not (= x116 x106)) (and (not (= x116 x157)) (not (= x142 x116)))) (not (= x4 x116))) (not (= x116 x26))))) (and (not (= x3 x26)) (and (not (= x4 x3)) (and (not (= x3 x106)) (and (not (= x157 x3)) (not (= x3 x142))))))))))
(assert (and (or (or (or (or (= (x5 (x5 x159 x128) x159) x128) (= x116 (x5 (x5 x159 x116) x159))) (= (x5 (x5 x159 x74) x159) x74)) (= x3 (x5 (x5 x159 x3) x159))) (= (x5 (x5 x159 x159) x159) x159)) (and (or (= (x5 (x5 x3 x159) x3) x159) (or (or (= (x5 (x5 x3 x74) x3) x74) (or (= x128 (x5 (x5 x3 x128) x3)) (= x116 (x5 (x5 x3 x116) x3)))) (= x3 (x5 (x5 x3 x3) x3)))) (and (and (or (= x159 (x5 (x5 x128 x159) x128)) (or (= x3 (x5 (x5 x128 x3) x128)) (or (= x74 (x5 (x5 x128 x74) x128)) (or (= x116 (x5 (x5 x128 x116) x128)) (= x128 (x5 (x5 x128 x128) x128)))))) (or (or (= (x5 (x5 x116 x3) x116) x3) (or (= x74 (x5 (x5 x116 x74) x116)) (or (= x128 (x5 (x5 x116 x128) x116)) (= (x5 (x5 x116 x116) x116) x116)))) (= (x5 (x5 x116 x159) x116) x159))) (or (or (or (= x74 (x5 (x5 x74 x74) x74)) (or (= (x5 (x5 x74 x128) x74) x128) (= (x5 (x5 x74 x116) x74) x116))) (= (x5 (x5 x74 x3) x74) x3)) (= (x5 (x5 x74 x159) x74) x159))))))
(assert (and (and (= (x5 x159 x128) x3) (and (= x116 (x5 x128 x3)) (= (x5 x116 x3) x74))) (= x159 (x5 x128 x128))))
(assert (let ((x104 (x5 x74 x128)) (x121 (x5 x3 x74)) (x39 (x5 x128 x74)) (x147 (x5 x3 x128)) (x46 (x5 x3 x159)) (x26 (x5 x116 x159)) (x131 (x5 x128 x159)) (x41 (x5 x74 x74)) (x126 (x5 x159 x116)) (x10 (x5 x74 x116)) (x4 (x5 x116 x3)) (x129 (x5 x74 x3)) (x120 (x5 x3 x3)) (x144 (x5 x159 x128)) (x31 (x5 x3 x116)) (x134 (x5 x159 x3)) (x58 (x5 x74 x159)) (x157 (x5 x116 x116)) (x151 (x5 x128 x116)) (x32 (x5 x128 x3)) (x132 (x5 x159 x74)) (x106 (x5 x116 x74)) (x68 (x5 x128 x128)) (x142 (x5 x116 x128)) (x80 (x5 x159 x159))) (and (and (and (and (and (and (and (and (or (or (or (= x157 x74) (or (= x157 x128) (= x157 x116))) (= x3 x157)) (= x157 x159)) (or (= x142 x159) (or (= x3 x142) (or (= x142 x74) (or (= x142 x116) (= x128 x142)))))) (or (or (or (= x106 x74) (or (= x106 x128) (= x116 x106))) (= x3 x106)) (= x159 x106))) (or (or (or (= x74 x4) (or (= x4 x116) (= x4 x128))) (= x4 x3)) (= x4 x159))) (or (= x26 x159) (or (or (= x74 x26) (or (= x128 x26) (= x116 x26))) (= x26 x3)))) (and (or (= x131 x159) (or (= x3 x131) (or (or (= x131 x128) (= x131 x116)) (= x74 x131)))) (and (and (or (or (= x3 x39) (or (= x74 x39) (or (= x39 x128) (= x116 x39)))) (= x159 x39)) (and (or (= x159 x68) (or (= x3 x68) (or (= x74 x68) (or (= x68 x116) (= x68 x128))))) (or (= x151 x159) (or (= x151 x3) (or (= x151 x74) (or (= x151 x116) (= x128 x151))))))) (or (or (= x3 x32) (or (= x74 x32) (or (= x128 x32) (= x116 x32)))) (= x32 x159))))) (and (or (or (or (= x74 x58) (or (= x116 x58) (= x58 x128))) (= x58 x3)) (= x159 x58)) (and (or (= x129 x159) (or (= x3 x129) (or (= x129 x74) (or (= x128 x129) (= x116 x129))))) (and (or (or (= x3 x41) (or (or (= x41 x128) (= x116 x41)) (= x41 x74))) (= x41 x159)) (and (or (or (or (or (= x104 x128) (= x104 x116)) (= x74 x104)) (= x104 x3)) (= x159 x104)) (or (= x159 x10) (or (or (= x10 x74) (or (= x128 x10) (= x10 x116))) (= x3 x10)))))))) (and (and (and (and (or (or (= x3 x147) (or (= x74 x147) (or (= x147 x116) (= x128 x147)))) (= x147 x159)) (or (or (= x3 x31) (or (= x31 x74) (or (= x31 x116) (= x31 x128)))) (= x159 x31))) (or (= x121 x159) (or (= x121 x3) (or (or (= x121 x128) (= x116 x121)) (= x74 x121))))) (or (= x120 x159) (or (or (or (= x120 x128) (= x120 x116)) (= x74 x120)) (= x120 x3)))) (or (= x46 x159) (or (or (= x74 x46) (or (= x46 x116) (= x128 x46))) (= x3 x46))))) (and (and (and (or (or (or (= x74 x132) (or (= x128 x132) (= x116 x132))) (= x3 x132)) (= x159 x132)) (and (or (or (= x3 x126) (or (= x126 x74) (or (= x126 x116) (= x126 x128)))) (= x159 x126)) (or (or (= x3 x144) (or (or (= x144 x116) (= x128 x144)) (= x74 x144))) (= x159 x144)))) (or (= x134 x159) (or (= x3 x134) (or (= x134 x74) (or (= x128 x134) (= x116 x134)))))) (or (= x80 x159) (or (or (or (= x128 x80) (= x80 x116)) (= x80 x74)) (= x3 x80)))))))
(assert (not (and (and (= x128 (x5 x159 x3)) (and (and (= x3 (x5 x159 x128)) (and (and (and (and (and (= (x5 x3 x128) x74) (and (= (x5 x3 x116) x116) (and (and (= (x5 x74 x3) x159) (and (= (x5 x74 x74) x128) (and (= (x5 x74 x128) x116) (and (and (and (and (and (= (x5 x128 x128) x159) (and (= x128 (x5 x128 x116)) (and (= x159 (x5 x116 x159)) (and (and (= x116 (x5 x116 x74)) (and (= (x5 x116 x116) x3) (= (x5 x116 x128) x128))) (= x74 (x5 x116 x3)))))) (= x3 (x5 x128 x74))) (= x116 (x5 x128 x3))) (= x74 (x5 x128 x159))) (= (x5 x74 x116) x74))))) (= (x5 x74 x159) x3)))) (= (x5 x3 x74) x159)) (= x3 (x5 x3 x3))) (= x128 (x5 x3 x159))) (= x159 (x5 x159 x116)))) (= (x5 x159 x74) x74))) (= (x5 x159 x159) x116))))
(assert (or (and (not (= x159 (x5 x159 (x5 x159 x159)))) (and (not (= (x5 x3 (x5 x159 x3)) x159)) (and (and (not (= (x5 x128 (x5 x159 x128)) x159)) (not (= (x5 x116 (x5 x159 x116)) x159))) (not (= x159 (x5 x74 (x5 x159 x74))))))) (or (and (and (and (and (not (= x3 (x5 x128 (x5 x3 x128)))) (not (= x3 (x5 x116 (x5 x3 x116))))) (not (= (x5 x74 (x5 x3 x74)) x3))) (not (= (x5 x3 (x5 x3 x3)) x3))) (not (= x3 (x5 x159 (x5 x3 x159))))) (or (and (not (= (x5 x159 (x5 x74 x159)) x74)) (and (and (not (= x74 (x5 x74 (x5 x74 x74)))) (and (not (= (x5 x116 (x5 x74 x116)) x74)) (not (= (x5 x128 (x5 x74 x128)) x74)))) (not (= (x5 x3 (x5 x74 x3)) x74)))) (or (and (and (and (and (not (= x128 (x5 x128 (x5 x128 x128)))) (not (= (x5 x116 (x5 x128 x116)) x128))) (not (= x128 (x5 x74 (x5 x128 x74))))) (not (= (x5 x3 (x5 x128 x3)) x128))) (not (= x128 (x5 x159 (x5 x128 x159))))) (and (not (= x116 (x5 x159 (x5 x116 x159)))) (and (and (and (not (= (x5 x116 (x5 x116 x116)) x116)) (not (= x116 (x5 x128 (x5 x116 x128))))) (not (= x116 (x5 x74 (x5 x116 x74))))) (not (= x116 (x5 x3 (x5 x116 x3)))))))))))
(assert (and (or (= x159 (x5 (x5 x159 x159) x159)) (or (or (= (x5 (x5 x74 x159) x74) x159) (or (= x159 (x5 (x5 x116 x159) x116)) (= (x5 (x5 x128 x159) x128) x159))) (= (x5 (x5 x3 x159) x3) x159))) (and (or (or (= x3 (x5 (x5 x3 x3) x3)) (or (= x3 (x5 (x5 x74 x3) x74)) (or (= x3 (x5 (x5 x116 x3) x116)) (= (x5 (x5 x128 x3) x128) x3)))) (= (x5 (x5 x159 x3) x159) x3)) (and (or (or (= (x5 (x5 x3 x74) x3) x74) (or (= x74 (x5 (x5 x74 x74) x74)) (or (= x74 (x5 (x5 x116 x74) x116)) (= (x5 (x5 x128 x74) x128) x74)))) (= x74 (x5 (x5 x159 x74) x159))) (and (or (or (or (or (= x128 (x5 (x5 x116 x128) x116)) (= (x5 (x5 x128 x128) x128) x128)) (= x128 (x5 (x5 x74 x128) x74))) (= (x5 (x5 x3 x128) x3) x128)) (= (x5 (x5 x159 x128) x159) x128)) (or (= (x5 (x5 x159 x116) x159) x116) (or (or (= x116 (x5 (x5 x74 x116) x74)) (or (= x116 (x5 (x5 x116 x116) x116)) (= (x5 (x5 x128 x116) x128) x116))) (= x116 (x5 (x5 x3 x116) x3)))))))))
(assert (let ((x41 (x5 x74 x74)) (x10 (x5 x116 x74)) (x129 (x5 x3 x74)) (x151 (x5 x116 x128)) (x39 (x5 x74 x128)) (x142 (x5 x128 x116)) (x104 (x5 x128 x74)) (x120 (x5 x3 x3)) (x46 (x5 x159 x3)) (x31 (x5 x116 x3)) (x157 (x5 x116 x116)) (x144 (x5 x128 x159)) (x32 (x5 x3 x128)) (x68 (x5 x128 x128)) (x134 (x5 x3 x159)) (x126 (x5 x116 x159)) (x121 (x5 x74 x3)) (x132 (x5 x74 x159)) (x147 (x5 x128 x3)) (x131 (x5 x159 x128)) (x106 (x5 x74 x116)) (x58 (x5 x159 x74)) (x80 (x5 x159 x159)) (x4 (x5 x3 x116)) (x26 (x5 x159 x116))) (and (and (and (and (and (and (not (= x131 x32)) (and (and (and (and (and (not (= x39 x68)) (and (and (and (not (= x151 x68)) (not (= x39 x151))) (not (= x151 x32))) (not (= x131 x151)))) (not (= x68 x32))) (not (= x68 x131))) (not (= x32 x39))) (not (= x39 x131)))) (and (and (not (= x26 x106)) (and (not (= x106 x4)) (and (and (and (and (not (= x26 x157)) (and (not (= x4 x157)) (and (not (= x157 x142)) (not (= x106 x157))))) (not (= x142 x106))) (not (= x4 x142))) (not (= x26 x142))))) (not (= x26 x4)))) (and (not (= x58 x129)) (and (not (= x41 x58)) (and (not (= x41 x129)) (and (not (= x58 x104)) (and (not (= x104 x129)) (and (and (not (= x58 x10)) (and (and (not (= x104 x10)) (not (= x41 x10))) (not (= x10 x129)))) (not (= x104 x41))))))))) (and (and (and (and (not (= x46 x147)) (and (not (= x147 x120)) (and (not (= x121 x147)) (and (and (not (= x31 x120)) (and (not (= x31 x121)) (not (= x31 x147)))) (not (= x31 x46)))))) (not (= x120 x121))) (not (= x121 x46))) (not (= x120 x46)))) (and (and (not (= x80 x132)) (and (not (= x134 x132)) (and (and (not (= x134 x144)) (and (and (not (= x126 x80)) (and (not (= x134 x126)) (and (not (= x126 x132)) (not (= x144 x126))))) (not (= x132 x144)))) (not (= x80 x144))))) (not (= x80 x134)))) (and (and (and (and (and (and (and (not (= x39 x132)) (and (not (= x39 x121)) (and (not (= x41 x39)) (and (and (not (= x106 x121)) (and (not (= x41 x106)) (not (= x106 x39)))) (not (= x106 x132)))))) (not (= x41 x121))) (not (= x41 x132))) (not (= x132 x121))) (and (and (and (not (= x126 x10)) (and (not (= x31 x10)) (and (not (= x126 x151)) (and (and (and (not (= x126 x157)) (and (and (not (= x10 x157)) (not (= x157 x151))) (not (= x157 x31)))) (not (= x151 x10))) (not (= x151 x31)))))) (not (= x126 x31))) (and (and (not (= x144 x104)) (and (and (and (not (= x147 x68)) (and (and (not (= x144 x142)) (and (and (not (= x142 x104)) (not (= x142 x68))) (not (= x142 x147)))) (not (= x104 x68)))) (not (= x144 x68))) (not (= x147 x104)))) (not (= x144 x147))))) (and (and (and (and (and (and (and (and (and (not (= x4 x129)) (not (= x4 x32))) (not (= x120 x4))) (not (= x134 x4))) (not (= x32 x129))) (not (= x120 x32))) (not (= x134 x32))) (not (= x120 x129))) (not (= x129 x134))) (not (= x120 x134)))) (and (and (and (and (not (= x80 x131)) (and (and (and (not (= x26 x80)) (and (and (not (= x26 x131)) (not (= x58 x26))) (not (= x26 x46)))) (not (= x58 x131))) (not (= x46 x131)))) (not (= x58 x46))) (not (= x58 x80))) (not (= x46 x80)))))))
(assert (let ((x62 (x5 x128 x128)) (x47 (x5 x3 x128)) (x149 (x5 x3 x74)) (x154 (x5 x116 x128)) (x122 (x5 x116 x116)) (x87 (x5 x159 x3)) (x83 (x5 x74 x116)) (x12 (x5 x128 x3)) (x34 (x5 x74 x3)) (x143 (x5 x159 x116)) (x85 (x5 x74 x159)) (x43 (x5 x128 x159)) (x72 (x5 x159 x74)) (x135 (x5 x74 x74)) (x155 (x5 x159 x159)) (x138 (x5 x3 x159)) (x30 (x5 x116 x74)) (x66 (x5 x128 x74)) (x24 (x5 x3 x3)) (x75 (x5 x74 x128)) (x22 (x5 x116 x3)) (x7 (x5 x128 x116)) (x158 (x5 x159 x128)) (x19 (x5 x116 x159)) (x73 (x5 x3 x116))) (let ((x26 (not (= x116 x83))) (x41 (not (= x116 x12))) (x44 (not (= x143 x159))) (x33 (not (= x128 x66))) (x18 (not (= x7 x128))) (x108 (not (= x74 x72))) (x142 (not (= x7 x116))) (x132 (not (= x116 x87))) (x129 (not (= x149 x116))) (x84 (not (= x22 x3))) (x21 (not (= x62 x128))) (x145 (not (= x74 x155))) (x112 (not (= x72 x3))) (x98 (not (= x128 x19))) (x126 (not (= x72 x116))) (x64 (not (= x34 x128))) (x71 (not (= x128 x73))) (x144 (not (= x85 x116))) (x78 (not (= x66 x74))) (x89 (not (= x128 x122))) (x25 (not (= x74 x19))) (x95 (not (= x74 x149))) (x77 (not (= x30 x3))) (x139 (not (= x62 x3))) (x2 (not (= x87 x159))) (x104 (not (= x47 x116))) (x88 (not (= x128 x24))) (x153 (not (= x83 x74))) (x127 (not (= x135 x74))) (x28 (not (= x149 x3))) (x9 (not (= x122 x159))) (x39 (not (= x66 x116))) (x157 (not (= x122 x116))) (x147 (not (= x116 x143))) (x109 (not (= x47 x74))) (x119 (not (= x74 x43))) (x16 (not (= x74 x85))) (x11 (not (= x128 x149))) (x42 (not (= x122 x74))) (x93 (not (= x62 x159))) (x1 (not (= x7 x74))) (x76 (not (= x122 x3))) (x10 (not (= x116 x22))) (x23 (not (= x22 x74))) (x96 (not (= x3 x158))) (x97 (not (= x73 x159))) (x32 (not (= x135 x116))) (x124 (not (= x3 x43))) (x81 (not (= x158 x128))) (x133 (not (= x155 x128))) (x54 (not (= x74 x154))) (x111 (not (= x138 x3))) (x102 (not (= x19 x159))) (x79 (not (= x66 x3))) (x80 (not (= x116 x155))) (x115 (not (= x138 x74))) (x103 (not (= x30 x159))) (x13 (not (= x74 x24))) (x14 (not (= x47 x128))) (x35 (not (= x74 x75))) (x15 (not (= x128 x143))) (x70 (not (= x128 x12))) (x140 (not (= x3 x75))) (x91 (not (= x159 x7))) (x136 (not (= x74 x143))) (x38 (not (= x75 x128))) (x120 (not (= x116 x158))) (x37 (not (= x22 x159))) (x31 (not (= x116 x24))) (x40 (not (= x74 x62))) (x29 (not (= x159 x43))) (x67 (not (= x3 x135))) (x61 (not (= x159 x66))) (x117 (not (= x75 x159))) (x51 (not (= x47 x159))) (x60 (not (= x159 x155))) (x45 (not (= x159 x154))) (x6 (not (= x3 x155))) (x151 (not (= x30 x116))) (x125 (not (= x3 x87))) (x123 (not (= x73 x3))) (x141 (not (= x3 x34))) (x63 (not (= x158 x159))) (x90 (not (= x87 x74))) (x130 (not (= x159 x83))) (x8 (not (= x143 x3))) (x53 (not (= x128 x85))) (x113 (not (= x12 x3))) (x65 (not (= x85 x159))) (x137 (not (= x128 x135))) (x107 (not (= x3 x154))) (x55 (not (= x128 x43))) (x121 (not (= x116 x19))) (x49 (not (= x30 x74))) (x118 (not (= x74 x158))) (x146 (not (= x30 x128))) (x52 (not (= x22 x128))) (x114 (not (= x24 x3))) (x17 (not (= x159 x72))) (x58 (not (= x34 x116))) (x101 (not (= x87 x128))) (x20 (not (= x74 x34))) (x86 (not (= x83 x128))) (x48 (not (= x74 x73))) (x156 (not (= x149 x159))) (x92 (not (= x19 x3))) (x131 (not (= x116 x73))) (x134 (not (= x116 x138))) (x57 (not (= x3 x47))) (x110 (not (= x159 x135))) (x105 (not (= x128 x72))) (x152 (not (= x12 x159))) (x46 (not (= x116 x43))) (x27 (not (= x128 x154))) (x99 (not (= x12 x74))) (x106 (not (= x116 x154))) (x82 (not (= x85 x3))) (x50 (not (= x128 x138))) (x68 (not (= x116 x75))) (x4 (not (= x116 x62))) (x150 (not (= x159 x24))) (x56 (not (= x138 x159))) (x36 (not (= x3 x83))) (x69 (not (= x34 x159))) (x59 (not (= x3 x7)))) (or (and (and (and (or x2 x56) (and (or x17 x65) (and (or x44 x102) (or x29 x63)))) (or x60 x60)) (and (and (and (and (or x69 x156) (and (and (or x130 x103) (or x117 x61)) (or x110 x110))) (or x17 x65)) (and (and (or x44 x102) (and (and (and (or x9 x9) (or x45 x91)) (or x130 x103)) (or x97 x37))) (and (or x29 x63) (and (or x152 x51) (and (and (or x91 x45) (or x93 x93)) (or x61 x117)))))) (and (or x2 x56) (and (or x150 x150) (and (and (or x152 x51) (or x37 x97)) (or x156 x69)))))) (or (or (or (and (and (and (or x134 x132) (and (and (or x129 x58) (and (or x104 x41) (or x10 x131))) (or x31 x31))) (and (and (and (or x121 x147) (and (and (and (or x157 x157) (or x142 x106)) (or x26 x151)) (or x131 x10))) (and (and (and (or x68 x39) (and (or x4 x4) (or x106 x142))) (or x41 x104)) (or x120 x46))) (and (and (or x129 x58) (and (and (or x68 x39) (or x26 x151)) (or x32 x32))) (or x144 x126)))) (and (or x80 x80) (and (and (or x144 x126) (and (or x147 x121) (or x120 x46))) (or x134 x132)))) (and (and (and (and (and (and (or x71 x52) (and (and (or x89 x89) (or x18 x27)) (or x146 x86))) (or x98 x15)) (and (and (and (and (or x21 x21) (or x27 x18)) (or x38 x33)) (or x70 x14)) (or x81 x55))) (and (or x105 x53) (and (and (or x137 x137) (and (or x86 x146) (or x38 x33))) (or x11 x64)))) (and (or x50 x101) (and (and (or x11 x64) (and (or x70 x14) (or x71 x52))) (or x88 x88)))) (and (or x133 x133) (and (and (or x105 x53) (and (or x81 x55) (or x15 x98))) (or x50 x101))))) (and (and (and (or x90 x115) (and (or x16 x108) (and (or x25 x136) (or x118 x119)))) (or x145 x145)) (and (and (and (or x16 x108) (and (and (and (or x78 x35) (or x153 x49)) (or x127 x127)) (or x20 x95))) (and (and (or x136 x25) (and (and (or x49 x153) (and (or x1 x54) (or x42 x42))) (or x23 x48))) (and (or x119 x118) (and (or x99 x109) (and (and (or x40 x40) (or x1 x54)) (or x78 x35)))))) (and (or x90 x115) (and (and (and (or x23 x48) (or x99 x109)) (or x95 x20)) (or x13 x13)))))) (and (and (and (or x125 x111) (and (or x114 x114) (and (or x141 x28) (and (or x113 x57) (or x84 x123))))) (and (and (and (and (or x57 x113) (and (and (or x59 x107) (or x139 x139)) (or x79 x140))) (or x124 x96)) (and (and (or x123 x84) (and (and (or x107 x59) (or x76 x76)) (or x36 x77))) (or x8 x92))) (and (or x112 x82) (and (or x28 x141) (and (or x67 x67) (and (or x77 x36) (or x140 x79))))))) (and (and (and (or x82 x112) (and (or x124 x96) (or x92 x8))) (or x111 x125)) (or x6 x6))))))))
(assert (let ((x58 (x5 x74 x3)) (x144 (x5 x74 x159)) (x120 (x5 x159 x128)) (x147 (x5 x159 x116)) (x131 (x5 x3 x116)) (x32 (x5 x74 x74)) (x68 (x5 x74 x128)) (x122 (x5 x116 x116)) (x134 (x5 x3 x159)) (x142 (x5 x128 x116)) (x126 (x5 x159 x74)) (x83 (x5 x116 x3)) (x39 (x5 x128 x74)) (x132 (x5 x159 x3)) (x80 (x5 x159 x159)) (x46 (x5 x128 x159)) (x4 (x5 x128 x128)) (x26 (x5 x74 x116)) (x73 (x5 x116 x159)) (x41 (x5 x128 x3)) (x31 (x5 x3 x3)) (x104 (x5 x3 x128)) (x89 (x5 x116 x128)) (x129 (x5 x3 x74)) (x7 (x5 x116 x74))) (let ((x75 (= x120 x159)) (x121 (= x73 x116)) (x30 (= x26 x74)) (x18 (= x128 x39)) (x33 (= x3 x134)) (x86 (= x3 x31)) (x12 (= x74 x32)) (x27 (= x74 x68)) (x66 (= x128 x46)) (x21 (= x3 x104)) (x143 (= x4 x128)) (x47 (= x3 x129)) (x146 (= x159 x132)) (x106 (= x116 x89)) (x38 (= x74 x144)) (x135 (= x80 x159)) (x158 (= x58 x74)) (x22 (= x3 x131)) (x157 (= x116 x122)) (x10 (= x83 x116)) (x43 (= x126 x159)) (x62 (= x128 x41)) (x151 (= x116 x7)) (x154 (= x142 x128)) (x19 (= x159 x147))) (and (and (or (or (or (and x146 x33) (or (or (and x47 x158) (or (and x10 x22) (and x62 x21))) (and x86 x86))) (or (or (and (= x3 x144) x43) (or (and (= x3 x58) x47) (or (and x12 (= x3 x32)) (or (and x18 (= x68 x3)) (and x151 (= x26 x3)))))) (or (or (and x19 (= x3 x73)) (or (or (or (and x154 (= x3 x89)) (and x157 (= x3 x122))) (and x30 (= x7 x3))) (and x22 (= x3 x83)))) (or (or (or (and (= x3 x39) x27) (or (and (= x142 x3) x106) (and x143 (= x4 x3)))) (and (= x3 x41) x21)) (and (= x46 x3) x75))))) (or (or (or (or (and x121 (= x147 x3)) (and x66 (= x120 x3))) (and (= x126 x3) x38)) (and x33 (= x3 x132))) (and x135 (= x3 x80)))) (and (or (or (or (or (or (and x66 (= x120 x74)) (and x121 (= x74 x147))) (and (= x126 x74) x38)) (and x33 (= x132 x74))) (and x135 (= x74 x80))) (or (or (or (or (or (or (and x27 (= x74 x39)) (or (and (= x74 x142) x106) (and x143 (= x4 x74)))) (and x21 (= x74 x41))) (and x75 (= x74 x46))) (or (or (and (= x83 x74) x22) (or (and x30 (= x7 x74)) (or (and x154 (= x74 x89)) (and x157 (= x122 x74))))) (and x19 (= x74 x73)))) (or (and x43 x38) (or (and x158 x47) (or (or (and x18 x27) (and x151 x30)) (and x12 x12))))) (or (and (= x74 x134) x146) (or (and x86 (= x31 x74)) (or (or (and (= x104 x74) x62) (and (= x131 x74) x10)) (and (= x129 x74) x158)))))) (and (or (or (or (or (and (= x128 x144) x43) (or (and x47 (= x128 x58)) (or (or (and (= x128 x26) x151) (and (= x68 x128) x18)) (and (= x128 x32) x12)))) (or (or (or (or (and x30 (= x128 x7)) (or (and (= x122 x128) x157) (and (= x128 x89) x154))) (and x22 (= x128 x83))) (and (= x73 x128) x19)) (or (and x66 x75) (or (or (or (and x143 x143) (and x106 x154)) (and x27 x18)) (and x62 x21))))) (or (or (and x86 (= x31 x128)) (or (and (= x129 x128) x158) (or (and (= x131 x128) x10) (and (= x104 x128) x62)))) (and (= x128 x134) x146))) (or (and (= x80 x128) x135) (or (or (and x38 (= x128 x126)) (or (and (= x128 x147) x121) (and (= x128 x120) x66))) (and (= x132 x128) x33)))) (or (or (or (or (or (and (= x116 x58) x47) (or (or (and x151 (= x116 x26)) (and (= x68 x116) x18)) (and x12 (= x32 x116)))) (and (= x116 x144) x43)) (or (or (and x121 x19) (or (or (or (and x157 x157) (and x106 x154)) (and x30 x151)) (and x22 x10))) (or (and x75 (= x46 x116)) (or (and (= x116 x41) x21) (or (or (and x143 (= x4 x116)) (and x106 (= x116 x142))) (and (= x116 x39) x27)))))) (or (or (or (and x158 (= x129 x116)) (or (and (= x104 x116) x62) (and (= x131 x116) x10))) (and (= x31 x116) x86)) (and x146 (= x134 x116)))) (or (or (and (= x132 x116) x33) (or (and (= x126 x116) x38) (or (and x66 (= x120 x116)) (and x121 (= x116 x147))))) (and (= x116 x80) x135)))))) (or (or (or (or (and (= x159 x144) x43) (or (and (= x58 x159) x47) (or (and x12 (= x32 x159)) (or (and x151 (= x26 x159)) (and x18 (= x68 x159)))))) (or (or (and x75 (= x46 x159)) (or (and x21 (= x41 x159)) (or (or (and (= x159 x142) x106) (and (= x159 x4) x143)) (and x27 (= x159 x39))))) (or (and x19 (= x159 x73)) (or (and (= x159 x83) x22) (or (and (= x159 x7) x30) (or (and x154 (= x89 x159)) (and x157 (= x122 x159)))))))) (or (and x146 (= x159 x134)) (or (and (= x31 x159) x86) (or (or (and (= x159 x131) x10) (and x62 (= x104 x159))) (and x158 (= x159 x129)))))) (or (and x135 x135) (or (or (or (and x19 x121) (and x66 x75)) (and x38 x43)) (and x146 x33))))))))
(assert (or (and (and (and (not (= (x5 (x5 x74 x159) x159) x74)) (and (not (= x116 (x5 (x5 x116 x159) x159))) (not (= x128 (x5 (x5 x128 x159) x159))))) (not (= (x5 (x5 x3 x159) x159) x3))) (not (= (x5 (x5 x159 x159) x159) x159))) (or (or (or (and (not (= x159 (x5 (x5 x159 x116) x116))) (and (and (and (not (= x116 (x5 (x5 x116 x116) x116))) (not (= (x5 (x5 x128 x116) x116) x128))) (not (= (x5 (x5 x74 x116) x116) x74))) (not (= (x5 (x5 x3 x116) x116) x3)))) (and (not (= x159 (x5 (x5 x159 x128) x128))) (and (not (= x3 (x5 (x5 x3 x128) x128))) (and (and (not (= (x5 (x5 x116 x128) x128) x116)) (not (= x128 (x5 (x5 x128 x128) x128)))) (not (= x74 (x5 (x5 x74 x128) x128))))))) (and (not (= (x5 (x5 x159 x74) x74) x159)) (and (not (= x3 (x5 (x5 x3 x74) x74))) (and (not (= x74 (x5 (x5 x74 x74) x74))) (and (not (= x116 (x5 (x5 x116 x74) x74))) (not (= x128 (x5 (x5 x128 x74) x74)))))))) (and (and (not (= x3 (x5 (x5 x3 x3) x3))) (and (and (not (= x128 (x5 (x5 x128 x3) x3))) (not (= (x5 (x5 x116 x3) x3) x116))) (not (= x74 (x5 (x5 x74 x3) x3))))) (not (= (x5 (x5 x159 x3) x3) x159))))))
(assert (or (and (and (not (= (x5 x3 (x5 x159 x3)) x3)) (and (and (not (= x116 (x5 x116 (x5 x159 x116)))) (not (= (x5 x128 (x5 x159 x128)) x128))) (not (= (x5 x74 (x5 x159 x74)) x74)))) (not (= (x5 x159 (x5 x159 x159)) x159))) (or (or (or (and (and (not (= x3 (x5 x3 (x5 x128 x3)))) (and (not (= (x5 x74 (x5 x128 x74)) x74)) (and (not (= x116 (x5 x116 (x5 x128 x116)))) (not (= x128 (x5 x128 (x5 x128 x128))))))) (not (= (x5 x159 (x5 x128 x159)) x159))) (and (not (= (x5 x159 (x5 x116 x159)) x159)) (and (and (not (= (x5 x74 (x5 x116 x74)) x74)) (and (not (= (x5 x128 (x5 x116 x128)) x128)) (not (= x116 (x5 x116 (x5 x116 x116)))))) (not (= (x5 x3 (x5 x116 x3)) x3))))) (and (and (and (and (not (= (x5 x128 (x5 x74 x128)) x128)) (not (= x116 (x5 x116 (x5 x74 x116))))) (not (= (x5 x74 (x5 x74 x74)) x74))) (not (= x3 (x5 x3 (x5 x74 x3))))) (not (= x159 (x5 x159 (x5 x74 x159)))))) (and (and (not (= (x5 x3 (x5 x3 x3)) x3)) (and (not (= (x5 x74 (x5 x3 x74)) x74)) (and (not (= x116 (x5 x116 (x5 x3 x116)))) (not (= (x5 x128 (x5 x3 x128)) x128))))) (not (= x159 (x5 x159 (x5 x3 x159))))))))
(assert (or (= (x5 x159 x159) x159) (or (= (x5 x3 x3) x3) (or (= (x5 x74 x74) x74) (or (= x128 (x5 x128 x128)) (= (x5 x116 x116) x116))))))
(assert (let ((x126 (x5 x159 x116)) (x41 (x5 x74 x74)) (x39 (x5 x128 x74)) (x129 (x5 x74 x3)) (x120 (x5 x3 x3)) (x157 (x5 x116 x116)) (x147 (x5 x3 x128)) (x104 (x5 x74 x128)) (x134 (x5 x159 x3)) (x10 (x5 x74 x116)) (x58 (x5 x74 x159)) (x31 (x5 x3 x116)) (x144 (x5 x159 x128)) (x80 (x5 x159 x159)) (x121 (x5 x3 x74)) (x142 (x5 x116 x128)) (x26 (x5 x116 x159)) (x32 (x5 x128 x3)) (x68 (x5 x128 x128)) (x46 (x5 x3 x159)) (x151 (x5 x128 x116)) (x132 (x5 x159 x74)) (x106 (x5 x116 x74)) (x131 (x5 x128 x159)) (x4 (x5 x116 x3))) (or (and (not (= (x5 x80 x80) x159)) (and (and (and (not (= x116 (x5 x126 x126))) (not (= (x5 x144 x144) x128))) (not (= x74 (x5 x132 x132)))) (not (= (x5 x134 x134) x3)))) (or (or (or (and (not (= x159 (x5 x26 x26))) (and (not (= x3 (x5 x4 x4))) (and (not (= (x5 x106 x106) x74)) (and (not (= x128 (x5 x142 x142))) (not (= x116 (x5 x157 x157))))))) (and (and (and (and (not (= x128 (x5 x68 x68))) (not (= (x5 x151 x151) x116))) (not (= x74 (x5 x39 x39)))) (not (= x3 (x5 x32 x32)))) (not (= x159 (x5 x131 x131))))) (and (and (not (= (x5 x129 x129) x3)) (and (and (not (= (x5 x10 x10) x116)) (not (= x128 (x5 x104 x104)))) (not (= x74 (x5 x41 x41))))) (not (= (x5 x58 x58) x159)))) (and (not (= (x5 x46 x46) x159)) (and (not (= (x5 x120 x120) x3)) (and (not (= x74 (x5 x121 x121))) (and (not (= x128 (x5 x147 x147))) (not (= (x5 x31 x31) x116))))))))))
(assert (let ((x41 (x5 x74 x74)) (x134 (x5 x3 x159)) (x26 (x5 x159 x116)) (x129 (x5 x3 x74)) (x132 (x5 x74 x159)) (x32 (x5 x3 x128)) (x147 (x5 x128 x3)) (x106 (x5 x74 x116)) (x10 (x5 x116 x74)) (x104 (x5 x128 x74)) (x31 (x5 x116 x3)) (x144 (x5 x128 x159)) (x151 (x5 x116 x128)) (x120 (x5 x3 x3)) (x58 (x5 x159 x74)) (x121 (x5 x74 x3)) (x39 (x5 x74 x128)) (x4 (x5 x3 x116)) (x142 (x5 x128 x116)) (x126 (x5 x116 x159)) (x131 (x5 x159 x128)) (x68 (x5 x128 x128)) (x157 (x5 x116 x116)) (x46 (x5 x159 x3)) (x80 (x5 x159 x159))) (or (and (and (not (= (x5 x134 x134) x3)) (and (and (not (= x128 (x5 x144 x144))) (not (= x116 (x5 x126 x126)))) (not (= (x5 x132 x132) x74)))) (not (= x159 (x5 x80 x80)))) (or (and (not (= x159 (x5 x46 x46))) (and (not (= (x5 x120 x120) x3)) (and (and (not (= x116 (x5 x31 x31))) (not (= x128 (x5 x147 x147)))) (not (= (x5 x121 x121) x74))))) (or (and (and (not (= x3 (x5 x129 x129))) (and (and (not (= (x5 x10 x10) x116)) (not (= x128 (x5 x104 x104)))) (not (= (x5 x41 x41) x74)))) (not (= x159 (x5 x58 x58)))) (or (and (and (and (and (not (= (x5 x142 x142) x128)) (not (= (x5 x157 x157) x116))) (not (= x74 (x5 x106 x106)))) (not (= (x5 x4 x4) x3))) (not (= x159 (x5 x26 x26)))) (and (not (= (x5 x131 x131) x159)) (and (and (not (= (x5 x39 x39) x74)) (and (not (= x116 (x5 x151 x151))) (not (= x128 (x5 x68 x68))))) (not (= (x5 x32 x32) x3))))))))))
(assert (and (not (= x159 x3)) (and (not (= x159 x74)) (and (not (= x3 x74)) (and (not (= x128 x159)) (and (not (= x128 x3)) (and (and (and (not (= x116 x3)) (and (not (= x116 x74)) (not (= x116 x128)))) (not (= x116 x159))) (not (= x128 x74)))))))))
(assert (let ((x144 (x5 x128 x159)) (x89 (x5 x159 x128)) (x78 (x5 x159 x3)) (x92 (x5 x159 x159)) (x26 (x5 x116 x3)) (x151 (x5 x116 x159)) (x43 (x5 x74 x74)) (x32 (x5 x74 x116)) (x106 (x5 x116 x128)) (x46 (x5 x128 x74)) (x142 (x5 x116 x116)) (x126 (x5 x128 x3)) (x4 (x5 x116 x74)) (x131 (x5 x3 x116)) (x1 (x5 x3 x3)) (x54 (x5 x3 x159)) (x135 (x5 x3 x74)) (x137 (x5 x159 x74)) (x86 (x5 x74 x159)) (x39 (x5 x128 x116)) (x10 (x5 x159 x116)) (x122 (x5 x3 x128)) (x120 (x5 x128 x128)) (x158 (x5 x74 x3)) (x80 (x5 x74 x128))) (let ((x73 (= x3 x120)) (x107 (= x159 x158)) (x64 (= x3 x43)) (x143 (= x159 x106)) (x31 (= x106 x116)) (x44 (= x10 x159)) (x93 (= x144 x74)) (x66 (= x116 x46)) (x34 (= x32 x74)) (x81 (= x122 x116)) (x152 (= x144 x3)) (x125 (= x128 x92)) (x57 (= x116 x54)) (x130 (= x86 x74)) (x155 (= x131 x128)) (x11 (= x3 x46)) (x108 (= x3 x158)) (x97 (= x3 x137)) (x139 (= x159 x1)) (x103 (= x74 x54)) (x35 (= x128 x1)) (x33 (= x128 x43)) (x59 (= x159 x126)) (x156 (= x3 x86)) (x38 (= x46 x128)) (x49 (= x158 x128)) (x8 (= x128 x78)) (x124 (= x128 x144)) (x99 (= x126 x74)) (x134 (= x120 x128)) (x105 (= x26 x116)) (x84 (= x86 x116)) (x30 (= x74 x120)) (x119 (= x126 x3)) (x136 (= x122 x3)) (x51 (= x151 x3)) (x88 (= x80 x159)) (x55 (= x116 x135)) (x21 (= x4 x116)) (x114 (= x128 x137)) (x101 (= x158 x116)) (x82 (= x54 x128)) (x157 (= x116 x142)) (x141 (= x89 x128)) (x56 (= x54 x159)) (x96 (= x151 x128)) (x113 (= x116 x92)) (x27 (= x116 x32)) (x14 (= x3 x80)) (x102 (= x89 x159)) (x87 (= x46 x159)) (x112 (= x128 x86)) (x85 (= x74 x4)) (x15 (= x43 x159)) (x23 (= x74 x135)) (x20 (= x1 x74)) (x16 (= x3 x1)) (x58 (= x39 x116)) (x118 (= x3 x26)) (x95 (= x158 x74)) (x147 (= x120 x116)) (x140 (= x137 x116)) (x72 (= x46 x74)) (x28 (= x10 x128)) (x62 (= x80 x116)) (x7 (= x106 x74)) (x50 (= x116 x1)) (x48 (= x122 x74)) (x104 (= x142 x74)) (x65 (= x144 x159)) (x138 (= x4 x159)) (x150 (= x3 x92)) (x41 (= x3 x142)) (x109 (= x26 x74)) (x36 (= x116 x10)) (x13 (= x131 x3)) (x6 (= x74 x89)) (x79 (= x78 x116)) (x132 (= x128 x106)) (x53 (= x116 x126)) (x133 (= x122 x128)) (x25 (= x3 x135)) (x154 (= x74 x39)) (x127 (= x74 x131)) (x110 (= x89 x3)) (x145 (= x135 x159)) (x129 (= x159 x142)) (x77 (= x116 x89)) (x90 (= x159 x131)) (x91 (= x78 x74)) (x2 (= x159 x86)) (x61 (= x3 x10)) (x47 (= x128 x80)) (x45 (= x74 x151)) (x12 (= x32 x128)) (x75 (= x43 x116)) (x17 (= x151 x159)) (x146 (= x4 x128)) (x52 (= x32 x3)) (x68 (= x128 x142)) (x123 (= x144 x116)) (x70 (= x4 x3)) (x19 (= x159 x39)) (x67 (= x116 x151)) (x71 (= x43 x74)) (x115 (= x159 x122)) (x42 (= x128 x135)) (x40 (= x26 x128)) (x37 (= x78 x3)) (x60 (= x159 x92)) (x29 (= x159 x78)) (x117 (= x92 x74)) (x83 (= x3 x39)) (x111 (= x74 x10)) (x9 (= x74 x137)) (x69 (= x3 x54)) (x121 (= x128 x39)) (x149 (= x80 x74)) (x18 (= x120 x159)) (x63 (= x159 x137)) (x24 (= x32 x159)) (x98 (= x116 x131)) (x76 (= x26 x159)) (x153 (= x126 x128)) (x22 (= x106 x3))) (and (and (and (and (and (and (and (or (or (or x52 (or x83 x41)) x13) x61) (or (or (or x70 (or x22 x41)) x118) x51)) (and (and (or (or x109 (or (or x7 x104) x85)) x45) (or (or x127 (or (or x104 x154) x34)) x111)) (and (and (or x96 (or x40 (or (or x68 x132) x146))) (or (or (or (or x68 x121) x12) x155) x28)) (and (or (or x98 (or x27 (or x58 x157))) x36) (or (or x105 (or (or x31 x157) x21)) x67))))) (and (or (or (or x138 (or x129 x143)) x76) x17) (or (or x90 (or (or x19 x129) x24)) x44))) (and (and (or (or x59 (or x87 (or x18 x19))) x65) (or (or (or (or x143 x18) x88) x115) x102)) (and (and (and (or (or x48 (or (or x30 x7) x149)) x6) (or (or (or (or x30 x154) x72) x99) x93)) (and (and (or (or (or x62 (or x31 x147)) x81) x77) (or (or (or x66 (or x58 x147)) x53) x123)) (and (or x124 (or x153 (or x38 (or x134 x121)))) (or x141 (or (or x47 (or x134 x132)) x133))))) (and (or x152 (or x119 (or (or x83 x73) x11))) (or x110 (or (or (or x73 x22) x14) x136)))))) (and (and (or (or (or x15 (or x87 x138)) x145) x63) (or (or x107 (or (or x88 x24) x15)) x2)) (and (and (and (and (or (or x42 (or (or x146 x38) x33)) x114) (or (or (or x33 (or x12 x47)) x49) x112)) (and (or x140 (or (or (or x21 x66) x75) x55)) (or (or (or (or x62 x27) x75) x101) x84))) (and (or x130 (or (or (or x149 x34) x71) x95)) (or (or x23 (or (or x85 x72) x71)) x9))) (and (or (or (or (or x70 x11) x64) x25) x97) (or (or (or x64 (or x52 x14)) x108) x156))))) (and (and (or (or (or x145 (or x115 x90)) x139) x56) (or x29 (or x139 (or (or x76 x59) x107)))) (and (and (and (or x103 (or x20 (or x23 (or x48 x127)))) (or (or (or x95 (or x109 x99)) x20) x91)) (and (and (or x82 (or x35 (or (or x155 x133) x42))) (or (or x35 (or x49 (or x153 x40))) x8)) (and (or x57 (or x50 (or x55 (or x98 x81)))) (or x79 (or (or x101 (or x105 x53)) x50))))) (and (or (or (or x25 (or x136 x13)) x16) x69) (or x37 (or x16 (or x108 (or x118 x119)))))))) (and (and (or x60 (or (or (or x65 x17) x2) x56)) (or x60 (or x29 (or (or x44 x102) x63)))) (and (and (or (or (or (or x61 x110) x97) x37) x150) (or x150 (or x69 (or (or x51 x152) x156)))) (and (and (or x117 (or (or (or x93 x45) x130) x103)) (or (or (or (or x6 x111) x9) x91) x117)) (and (and (or x113 (or (or (or x67 x123) x84) x57)) (or x113 (or (or x140 (or x77 x36)) x79))) (and (or (or (or (or x124 x96) x112) x82) x125) (or (or x8 (or x114 (or x28 x141))) x125))))))))))
(check-sat)
(exit)
